(echo "starting Z3...")
(declare-const ch0 Int)
(declare-const ch1 Int)
(declare-const ch2 Int)
(declare-const ch3 Int)
(declare-const ch4 Int)
(declare-const ch5 Int)
(declare-const ch6 Int)
(declare-const ch7 Int)
(declare-const ch8 Int)
(declare-const ch9 Int)
(declare-const ch10 Int)
(declare-const ch11 Int)
(declare-const ch12 Int)
(declare-const ch13 Int)
(declare-const ch14 Int)
(declare-const ch15 Int)

(assert (> ch0 0))
(assert (> ch1 0))
(assert (> ch2 0))
(assert (> ch3 0))
(assert (> ch4 0))
(assert (> ch5 0))
(assert (> ch6 0))
(assert (> ch7 0))
(assert (> ch8 0))
(assert (> ch9 0))
(assert (> ch10 0))
(assert (> ch11 0))
(assert (> ch12 0))
(assert (> ch13 0))
(assert (> ch14 0))
(assert (> ch15 0))

(assert (<= ch0 35))
(assert (<= ch1 35))
(assert (<= ch2 35))
(assert (<= ch3 35))
(assert (<= ch4 35))
(assert (<= ch5 35))
(assert (<= ch6 35))
(assert (<= ch7 35))
(assert (<= ch8 35))
(assert (<= ch9 35))
(assert (<= ch10 35))
(assert (<= ch11 35))
(assert (<= ch12 35))
(assert (<= ch13 35))
(assert (<= ch14 35))
(assert (<= ch15 35))

(assert (= 14 (mod (+ ch0 ch1) 36)))
(assert (= 24 (mod (+ ch2 ch3) 36)))
(assert (= 6 (mod (- ch2 ch0) 36)))
(assert (= 4 (mod (+ (+ ch1 ch3) ch5) 36)))
(assert (= 13 (mod (+ (+ ch2 ch4) ch6) 36)))
(assert (= 22 (mod (+ (+ ch3 ch4) ch5) 36)))
(assert (= 31 (mod (+ (+ ch6 ch8) ch10) 36)))
(assert (= 7  (mod (+ (+ ch1 ch4) ch7) 36)))
(assert (= 20 (mod (+ (+ ch9 ch12) ch15) 36)))
(assert (= 12 (mod (+ (+ ch13 ch14) ch15) 36)))
(assert (= 27 (mod (+ (+ ch8 ch9) ch10) 36)))
(assert (= 23 (mod (+ (+ ch7 ch12) ch13) 36)))
(check-sat)
(get-model)
